36 36
23
3 3 28 24
3 4 28 32
3 5 28 27
3 6 3 0
3 7 25 15
3 8 0 28
3 9 3 27
3 10 3 17
3 11 3 6
3 12 0 16
3 14 25 22
3 15 25 0
3 16 0 0
3 24 28 0
3 36 10 0
4 3 6 0
4 11 6 3
4 22 6 14
5 3 31 14
5 4 31 32
5 14 31 0
5 15 31 17
12 36 13 0
